sat
((Animal_name "aaaaaaaa") (Category "Mammals") (warmBlooded true) (feedMilk true) (Animal_code "M"))
cvc5::CONSTANT = { Boolean type: 3, String type: 3 }
cvc5::TERM = { EQUAL: 8, GT: 1, IMPLIES: 2, OR: 1, REGEXP_RANGE: 1, REGEXP_STAR: 1, STRING_CHARAT: 1, STRING_IN_REGEXP: 1, STRING_LENGTH: 1 }
cvc5::VARIABLE = { Boolean type: 1 }
driver::filename = animal.smt2
global::totalTime = 55ms
theory::arith::inferencesConflict = { ARITH_CONF_EQ: 1, ARITH_CONF_SIMPLEX: 3 }
theory::arith::inferencesLemma = { ARITH_ROW_IMPL: 1, ARITH_UNATE: 3 }
theory::strings::inferencesLemma = { STRINGS_CODE_INJ: 20, STRINGS_CODE_PROXY: 12, STRINGS_EXTF: 5, STRINGS_LEN_NORM: 6, STRINGS_REGISTER_TERM: 40, STRINGS_REGISTER_TERM_ATOMIC: 14, STRINGS_RE_UNFOLD_POS: 4 }
